NAME : mEgtspf.pid7949.gtsp.235592111.tour
COMMENT : Length = 235592111
COMMENT : Found by LKH [Keld Helsgaun] Sun Mar  9 16:16:07 2025
TYPE : TOUR
DIMENSION : 135
TOUR_SECTION
1
2
97
98
99
96
37
38
39
36
3
135
132
133
134
124
125
126
127
55
52
53
54
6
69
70
71
68
131
128
129
130
15
78
79
76
77
26
27
24
25
50
51
48
49
7
32
33
34
35
113
114
115
112
92
93
94
95
60
61
62
63
4
80
81
82
83
14
75
72
73
74
10
8
58
59
56
57
11
116
117
118
119
90
91
88
89
9
29
30
31
28
5
109
110
111
108
40
41
42
43
20
21
22
23
65
66
67
64
44
45
46
47
102
103
100
101
12
17
18
19
16
13
87
84
85
86
106
107
104
105
122
123
120
121
-1
EOF
